WARNING: for repeatability, setting FPU to use double precision
============================[ Problem Statistics ]=============================
|                                                                             |
|  Number of variables:            50                                         |
|  Number of clauses:             218                                         |
|  Parse time:                   0.00 s                                       |
|                                                                             |
============================[ Search Statistics ]==============================
| Conflicts |          ORIGINAL         |          LEARNT          | Progress |
|           |    Vars  Clauses Literals |    Limit  Clauses Lit/Cl |          |
===============================================================================
===============================================================================
restarts              : 1
conflicts             : 29             (20495 /sec)
decisions             : 43             (0.00 % random) (30389 /sec)
propagations          : 508            (359011 /sec)
conflict literals     : 125            (8.76 % deleted)
Memory used           : 20.00 MB
CPU time              : 0.001415 s

SATISFIABLE
